qbf_easy_train/easy_229_SAT.qdimacs
p cnf 21 47
a 7 4 15 0
e 1 2 3 5 6 8 9 10 11 12 13 14 16 17 18 19 20 21 0
-3 -1 0
-3 2 0
1 -2 3 0
-5 4 0
-5 -1 0
-4 1 5 0
-8 -6 0
-8 7 0
6 -7 8 0
9 -8 0
9 -7 0
8 7 -9 0
-11 -10 0
-11 10 0
-9 11 -12 0
9 -11 -12 0
-9 -11 12 0
9 11 12 0
13 -5 0
13 12 0
5 -12 -13 0
14 -3 0
14 -13 0
3 13 -14 0
2 -15 -16 0
-2 15 -16 0
2 15 16 0
-2 -15 16 0
-16 7 -17 0
16 -7 -17 0
-16 -7 17 0
16 7 17 0
-19 -18 0
-19 6 0
18 -6 19 0
-20 -17 0
-20 -19 0
17 19 20 0
-14 -20 -21 0
14 20 -21 0
-14 20 21 0
14 -20 21 0
-12 -18 -20 0
-5 -8 -19 -9 1 18 -3 0
21 20 -1 12 18 15 0
-13 -9 -20 19 -21 0
21 0
