sat_easy_train/easy_229_SAT.dimacs
p cnf 140 478
-4 2 0
-4 -3 0
-2 3 4 0
4 5 -6 0
-4 -5 -6 0
4 -5 6 0
-4 5 6 0
-7 4 0
-7 6 0
-4 -6 7 0
1 7 -8 0
-1 -7 -8 0
1 -7 8 0
-1 7 8 0
-11 -10 0
-11 6 0
10 -6 11 0
-12 -9 0
-12 -11 0
9 11 12 0
-13 -5 0
-13 5 0
15 -13 0
15 -14 0
13 14 -15 0
-16 -13 0
-16 5 0
13 -5 16 0
-17 16 0
-17 -14 0
-16 14 17 0
-18 -15 0
-18 17 0
15 -17 18 0
-19 -12 0
-19 -18 0
12 18 19 0
-8 19 -20 0
8 -19 -20 0
-8 -19 20 0
8 19 20 0
-21 -15 -22 0
21 15 -22 0
-21 15 22 0
21 -15 22 0
4 -22 -23 0
-4 22 -23 0
4 22 23 0
-4 -22 23 0
2 15 -24 0
-2 -15 -24 0
2 -15 24 0
-2 15 24 0
24 14 -25 0
-24 -14 -25 0
24 -14 25 0
-24 14 25 0
15 25 -26 0
-15 -25 -26 0
15 -25 26 0
-15 25 26 0
-28 9 0
-28 27 0
-9 -27 28 0
-5 28 -29 0
5 -28 -29 0
-5 -28 29 0
5 28 29 0
-29 9 -30 0
29 -9 -30 0
-29 -9 30 0
29 9 30 0
-31 26 0
-31 -30 0
-26 30 31 0
-32 -23 0
-32 31 0
23 -31 32 0
34 33 0
34 -28 0
-33 28 -34 0
34 -28 -35 0
-34 28 -35 0
34 28 35 0
-34 -28 35 0
-37 -36 0
-37 27 0
36 -27 37 0
38 37 0
38 -1 0
-37 1 -38 0
4 -39 0
-4 -39 0
-38 -39 -40 0
38 39 -40 0
-38 39 40 0
38 -39 40 0
35 -40 -41 0
-35 40 -41 0
35 40 41 0
-35 -40 41 0
43 -42 0
43 -10 0
42 10 -43 0
-44 -39 -45 0
44 39 -45 0
-44 39 45 0
44 -39 45 0
-46 -21 0
-46 -45 0
21 45 46 0
46 -9 -47 0
-46 9 -47 0
46 9 47 0
-46 -9 47 0
-48 -11 0
-48 -8 0
11 8 48 0
-47 48 -49 0
47 -48 -49 0
-47 -48 49 0
47 48 49 0
-50 -5 -51 0
50 5 -51 0
-50 5 51 0
50 -5 51 0
-51 38 -52 0
51 -38 -52 0
-51 -38 52 0
51 38 52 0
53 52 0
53 11 0
-52 -11 -53 0
-54 49 0
-54 -53 0
-49 53 54 0
55 -38 0
55 30 0
38 -30 -55 0
56 -54 0
56 -55 0
54 55 -56 0
-57 43 0
-57 56 0
-43 -56 57 0
-59 -58 0
-59 33 0
58 -33 59 0
-60 -24 0
-60 -5 0
24 5 60 0
-61 39 0
-61 13 0
-39 -13 61 0
-62 60 0
-62 61 0
-60 -61 62 0
-46 -62 -63 0
46 62 -63 0
-46 62 63 0
46 -62 63 0
3 -63 -64 0
-3 63 -64 0
3 63 64 0
-3 -63 64 0
-59 -64 -65 0
59 64 -65 0
-59 64 65 0
59 -64 65 0
66 62 0
66 46 0
-62 -46 -66 0
67 65 0
67 66 0
-65 -66 -67 0
-68 2 0
-68 34 0
-2 -34 68 0
69 67 0
69 -68 0
-67 68 -69 0
57 -69 -70 0
-57 69 -70 0
57 69 70 0
-57 -69 70 0
-71 41 0
-71 70 0
-41 -70 71 0
32 71 -72 0
-32 -71 -72 0
32 -71 72 0
-32 71 72 0
34 28 -73 0
-34 -28 -73 0
34 -28 73 0
-34 28 73 0
74 -36 0
74 50 0
36 -50 -74 0
75 -42 0
75 10 0
42 -10 -75 0
60 75 -76 0
-60 -75 -76 0
60 -75 76 0
-60 75 76 0
-77 -26 0
-77 76 0
26 -76 77 0
77 -30 -78 0
-77 30 -78 0
77 30 78 0
-77 -30 78 0
-79 -74 0
-79 78 0
74 -78 79 0
80 -73 0
80 -79 0
73 79 -80 0
81 -33 0
81 -11 0
33 11 -81 0
-82 -60 0
-82 -25 0
60 25 82 0
-60 5 -83 0
60 -5 -83 0
-60 -5 83 0
60 5 83 0
84 83 0
84 39 0
-83 -39 -84 0
-84 -42 -85 0
84 42 -85 0
-84 42 85 0
84 -42 85 0
86 82 0
86 85 0
-82 -85 -86 0
-87 -81 0
-87 86 0
81 -86 87 0
88 -12 0
88 46 0
12 -46 -88 0
-89 -88 0
-89 -22 0
88 22 89 0
90 89 0
90 -50 0
-89 50 -90 0
-87 -90 -91 0
87 90 -91 0
-87 90 91 0
87 -90 91 0
-92 34 0
-92 -12 0
-34 12 92 0
-61 -93 -94 0
61 93 -94 0
-61 93 94 0
61 -93 94 0
95 -92 0
95 94 0
92 -94 -95 0
-96 91 0
-96 -95 0
-91 95 96 0
-97 2 0
-97 33 0
-2 -33 97 0
98 97 0
98 -63 0
-97 63 -98 0
96 98 -99 0
-96 -98 -99 0
96 -98 99 0
-96 98 99 0
-80 -99 -100 0
80 99 -100 0
-80 99 100 0
80 -99 100 0
101 72 0
101 100 0
-72 -100 -101 0
-102 20 0
-102 101 0
-20 -101 102 0
103 25 0
103 -45 0
-25 45 -103 0
-104 -12 0
-104 -9 0
12 9 104 0
-103 104 -105 0
103 -104 -105 0
-103 -104 105 0
103 104 105 0
44 -2 -106 0
-44 2 -106 0
44 2 106 0
-44 -2 106 0
107 24 0
107 -39 0
-24 39 -107 0
108 -14 0
108 -107 0
14 107 -108 0
-106 108 -109 0
106 -108 -109 0
-106 -108 109 0
106 108 109 0
-110 -62 0
-110 -75 0
62 75 110 0
-33 -7 -111 0
33 7 -111 0
-33 7 111 0
33 -7 111 0
-112 110 0
-112 -111 0
-110 111 112 0
97 112 -113 0
-97 -112 -113 0
97 -112 113 0
-97 112 113 0
109 -113 -114 0
-109 113 -114 0
109 113 114 0
-109 -113 114 0
115 44 0
115 -76 0
-44 76 -115 0
-58 -3 -116 0
58 3 -116 0
-58 3 116 0
58 -3 116 0
-115 -116 -117 0
115 116 -117 0
-115 116 117 0
115 -116 117 0
14 -110 -118 0
-14 110 -118 0
14 110 118 0
-14 -110 118 0
-119 117 0
-119 -118 0
-117 118 119 0
-120 -114 0
-120 119 0
114 -119 120 0
-121 -105 0
-121 120 0
105 -120 121 0
122 -4 0
122 -21 0
4 21 -122 0
-122 88 -123 0
122 -88 -123 0
-122 -88 123 0
122 88 123 0
124 77 0
124 -83 0
-77 83 -124 0
-125 -110 0
-125 -22 0
110 22 125 0
126 125 0
126 -17 0
-125 17 -126 0
127 -27 0
127 -60 0
27 60 -127 0
128 36 0
128 -127 0
-36 127 -128 0
-126 -128 -129 0
126 128 -129 0
-126 128 129 0
126 -128 129 0
130 60 0
130 -3 0
-60 3 -130 0
131 88 0
131 -2 0
-88 2 -131 0
130 131 -132 0
-130 -131 -132 0
130 -131 132 0
-130 131 132 0
-133 -44 0
-133 -15 0
44 15 133 0
133 34 -134 0
-133 -34 -134 0
133 -34 134 0
-133 34 134 0
-135 132 0
-135 134 0
-132 -134 135 0
136 -129 0
136 -135 0
129 135 -136 0
137 -124 0
137 136 0
124 -136 -137 0
138 -123 0
138 137 0
123 -137 -138 0
139 -121 0
139 138 0
121 -138 -139 0
-140 102 0
-140 -139 0
-102 139 140 0
-83 81 -122 35 0
-27 -2 72 0
-68 -97 -136 20 95 -57 0
51 16 -75 -38 13 0
98 102 65 -38 0
-93 -10 45 9 0
-88 120 -36 -44 0
50 -36 0
-111 -114 -66 0
-76 2 -39 10 -29 -135 0
101 9 -62 53 -42 0
-15 -107 0
36 -16 -110 -55 -99 -96 0
-20 -140 -15 0
84 48 -87 126 -50 0
-89 -87 -101 -60 115 -112 0
111 46 37 3 39 0
16 30 -100 -15 0
36 16 69 -126 0
-15 20 54 0
-118 -12 -113 -81 0
-103 17 -11 134 0
-77 -96 0
119 60 3 -101 -107 0
-21 -65 0
140 84 -57 0
3 112 119 -61 -57 82 0
-49 -121 -79 0
-83 110 -4 0
-35 1 -44 33 0
99 -43 40 68 41 0
-57 103 0
-133 112 -76 0
126 -98 -106 0
13 -83 -110 -23 -136 0
-59 -102 15 -140 -115 0
-27 -59 34 131 -89 3 0
92 35 4 -79 -71 17 0
83 94 0
135 21 72 0
113 82 -61 0
49 -96 68 70 43 0
-104 -5 -98 -89 91 0
-78 -38 12 34 -59 0
10 -53 -80 -78 0
73 -40 -35 96 74 0
27 -49 78 46 -121 109 0
60 46 -133 0
121 2 88 108 0
91 129 0
-43 2 -72 123 0
101 59 -52 0
-54 60 -42 -129 0
91 102 58 22 -66 0
113 72 0
8 -91 45 -131 -12 0
-49 -21 16 104 31 101 0
92 -7 84 15 -33 0
29 102 4 31 -50 0
-105 88 -113 0
-11 -97 8 110 0
98 134 -12 -118 13 0
140 0
